; benchmark generated from python API
(set-info :status unknown)
(declare-fun cell_1_2 () Int)
(declare-fun cell_1_6 () Int)
(declare-fun cell_2_1 () Int)
(declare-fun cell_2_6 () Int)
(declare-fun cell_3_8 () Int)
(declare-fun cell_3_9 () Int)
(declare-fun cell_4_4 () Int)
(declare-fun cell_4_9 () Int)
(declare-fun cell_5_3 () Int)
(declare-fun cell_6_8 () Int)
(declare-fun cell_7_5 () Int)
(declare-fun cell_8_7 () Int)
(declare-fun cell_9_1 () Int)
(declare-fun cell_1_1 () Int)
(declare-fun cell_3_1 () Int)
(declare-fun cell_4_1 () Int)
(declare-fun cell_5_1 () Int)
(declare-fun cell_6_1 () Int)
(declare-fun cell_7_1 () Int)
(declare-fun cell_8_1 () Int)
(declare-fun cell_2_2 () Int)
(declare-fun cell_3_2 () Int)
(declare-fun cell_4_2 () Int)
(declare-fun cell_5_2 () Int)
(declare-fun cell_6_2 () Int)
(declare-fun cell_7_2 () Int)
(declare-fun cell_8_2 () Int)
(declare-fun cell_9_2 () Int)
(declare-fun cell_1_3 () Int)
(declare-fun cell_2_3 () Int)
(declare-fun cell_3_3 () Int)
(declare-fun cell_4_3 () Int)
(declare-fun cell_6_3 () Int)
(declare-fun cell_7_3 () Int)
(declare-fun cell_8_3 () Int)
(declare-fun cell_9_3 () Int)
(declare-fun cell_1_4 () Int)
(declare-fun cell_2_4 () Int)
(declare-fun cell_3_4 () Int)
(declare-fun cell_5_4 () Int)
(declare-fun cell_6_4 () Int)
(declare-fun cell_7_4 () Int)
(declare-fun cell_8_4 () Int)
(declare-fun cell_9_4 () Int)
(declare-fun cell_1_5 () Int)
(declare-fun cell_2_5 () Int)
(declare-fun cell_3_5 () Int)
(declare-fun cell_4_5 () Int)
(declare-fun cell_5_5 () Int)
(declare-fun cell_6_5 () Int)
(declare-fun cell_8_5 () Int)
(declare-fun cell_9_5 () Int)
(declare-fun cell_3_6 () Int)
(declare-fun cell_4_6 () Int)
(declare-fun cell_5_6 () Int)
(declare-fun cell_6_6 () Int)
(declare-fun cell_7_6 () Int)
(declare-fun cell_8_6 () Int)
(declare-fun cell_9_6 () Int)
(declare-fun cell_1_7 () Int)
(declare-fun cell_2_7 () Int)
(declare-fun cell_3_7 () Int)
(declare-fun cell_4_7 () Int)
(declare-fun cell_5_7 () Int)
(declare-fun cell_6_7 () Int)
(declare-fun cell_7_7 () Int)
(declare-fun cell_9_7 () Int)
(declare-fun cell_1_8 () Int)
(declare-fun cell_2_8 () Int)
(declare-fun cell_4_8 () Int)
(declare-fun cell_5_8 () Int)
(declare-fun cell_7_8 () Int)
(declare-fun cell_8_8 () Int)
(declare-fun cell_9_8 () Int)
(declare-fun cell_1_9 () Int)
(declare-fun cell_2_9 () Int)
(declare-fun cell_5_9 () Int)
(declare-fun cell_6_9 () Int)
(declare-fun cell_7_9 () Int)
(declare-fun cell_8_9 () Int)
(declare-fun cell_9_9 () Int)
(assert
 (= cell_1_2 1))
(assert
 (= cell_1_6 2))
(assert
 (= cell_2_1 2))
(assert
 (= cell_2_6 1))
(assert
 (= cell_3_8 2))
(assert
 (= cell_3_9 1))
(assert
 (= cell_4_4 1))
(assert
 (= cell_4_9 2))
(assert
 (= cell_5_3 1))
(assert
 (= cell_6_8 1))
(assert
 (= cell_7_5 1))
(assert
 (= cell_8_7 1))
(assert
 (= cell_9_1 1))
(assert
 (let (($x643 (= cell_1_1 9)))
 (let (($x3631 (= cell_1_1 8)))
 (let (($x257 (= cell_1_1 7)))
 (let (($x1939 (= cell_1_1 6)))
 (let (($x915 (= cell_1_1 5)))
 (let (($x659 (= cell_1_1 4)))
 (let (($x540 (= cell_1_1 3)))
 (let (($x2152 (= cell_1_1 2)))
 (let (($x2336 (= cell_1_1 1)))
 (or $x2336 $x2152 $x540 $x659 $x915 $x1939 $x257 $x3631 $x643)))))))))))
(assert
 (let (($x277 (= cell_2_1 2)))
 (or (= cell_2_1 1) $x277 (= cell_2_1 3) (= cell_2_1 4) (= cell_2_1 5) (= cell_2_1 6) (= cell_2_1 7) (= cell_2_1 8) (= cell_2_1 9))))
(assert
 (let (($x3437 (= cell_3_1 9)))
 (let (($x868 (= cell_3_1 8)))
 (let (($x217 (= cell_3_1 7)))
 (let (($x1376 (= cell_3_1 6)))
 (let (($x3889 (= cell_3_1 5)))
 (let (($x713 (= cell_3_1 4)))
 (let (($x2796 (= cell_3_1 3)))
 (let (($x3953 (= cell_3_1 2)))
 (let (($x548 (= cell_3_1 1)))
 (or $x548 $x3953 $x2796 $x713 $x3889 $x1376 $x217 $x868 $x3437)))))))))))
(assert
 (let (($x1451 (= cell_4_1 9)))
 (let (($x941 (= cell_4_1 8)))
 (let (($x4070 (= cell_4_1 7)))
 (let (($x2561 (= cell_4_1 6)))
 (let (($x2189 (= cell_4_1 5)))
 (let (($x1722 (= cell_4_1 4)))
 (let (($x1946 (= cell_4_1 3)))
 (let (($x1135 (= cell_4_1 2)))
 (let (($x2860 (= cell_4_1 1)))
 (or $x2860 $x1135 $x1946 $x1722 $x2189 $x2561 $x4070 $x941 $x1451)))))))))))
(assert
 (let (($x1433 (= cell_5_1 9)))
 (let (($x3305 (= cell_5_1 8)))
 (let (($x585 (= cell_5_1 7)))
 (let (($x2318 (= cell_5_1 6)))
 (let (($x7840 (= cell_5_1 5)))
 (let (($x71 (= cell_5_1 4)))
 (let (($x3542 (= cell_5_1 3)))
 (let (($x399 (= cell_5_1 2)))
 (let (($x4069 (= cell_5_1 1)))
 (or $x4069 $x399 $x3542 $x71 $x7840 $x2318 $x585 $x3305 $x1433)))))))))))
(assert
 (let (($x1120 (= cell_6_1 9)))
 (let (($x3194 (= cell_6_1 8)))
 (let (($x2106 (= cell_6_1 7)))
 (let (($x201 (= cell_6_1 6)))
 (let (($x3235 (= cell_6_1 5)))
 (let (($x629 (= cell_6_1 4)))
 (let (($x2349 (= cell_6_1 3)))
 (let (($x3694 (= cell_6_1 2)))
 (let (($x499 (= cell_6_1 1)))
 (or $x499 $x3694 $x2349 $x629 $x3235 $x201 $x2106 $x3194 $x1120)))))))))))
(assert
 (let (($x2183 (= cell_7_1 9)))
 (let (($x318 (= cell_7_1 8)))
 (let (($x3088 (= cell_7_1 7)))
 (let (($x664 (= cell_7_1 6)))
 (let (($x359 (= cell_7_1 5)))
 (let (($x2622 (= cell_7_1 4)))
 (let (($x2098 (= cell_7_1 3)))
 (let (($x1499 (= cell_7_1 2)))
 (let (($x2634 (= cell_7_1 1)))
 (or $x2634 $x1499 $x2098 $x2622 $x359 $x664 $x3088 $x318 $x2183)))))))))))
(assert
 (let (($x3317 (= cell_8_1 9)))
 (let (($x2985 (= cell_8_1 8)))
 (let (($x3062 (= cell_8_1 7)))
 (let (($x741 (= cell_8_1 6)))
 (let (($x2249 (= cell_8_1 5)))
 (let (($x1322 (= cell_8_1 4)))
 (let (($x1616 (= cell_8_1 3)))
 (let (($x1520 (= cell_8_1 2)))
 (let (($x922 (= cell_8_1 1)))
 (or $x922 $x1520 $x1616 $x1322 $x2249 $x741 $x3062 $x2985 $x3317)))))))))))
(assert
 (let (($x2056 (= cell_9_1 1)))
 (or $x2056 (= cell_9_1 2) (= cell_9_1 3) (= cell_9_1 4) (= cell_9_1 5) (= cell_9_1 6) (= cell_9_1 7) (= cell_9_1 8) (= cell_9_1 9))))
(assert
 (let (($x1219 (= cell_1_2 1)))
 (or $x1219 (= cell_1_2 2) (= cell_1_2 3) (= cell_1_2 4) (= cell_1_2 5) (= cell_1_2 6) (= cell_1_2 7) (= cell_1_2 8) (= cell_1_2 9))))
(assert
 (let (($x1029 (= cell_2_2 9)))
 (let (($x29 (= cell_2_2 8)))
 (let (($x7989 (= cell_2_2 7)))
 (let (($x1062 (= cell_2_2 6)))
 (let (($x3827 (= cell_2_2 5)))
 (let (($x923 (= cell_2_2 4)))
 (let (($x1832 (= cell_2_2 3)))
 (let (($x683 (= cell_2_2 2)))
 (let (($x102 (= cell_2_2 1)))
 (or $x102 $x683 $x1832 $x923 $x3827 $x1062 $x7989 $x29 $x1029)))))))))))
(assert
 (let (($x1730 (= cell_3_2 9)))
 (let (($x48 (= cell_3_2 8)))
 (let (($x1115 (= cell_3_2 7)))
 (let (($x252 (= cell_3_2 6)))
 (let (($x2506 (= cell_3_2 5)))
 (let (($x1532 (= cell_3_2 4)))
 (let (($x948 (= cell_3_2 3)))
 (let (($x26 (= cell_3_2 2)))
 (let (($x441 (= cell_3_2 1)))
 (or $x441 $x26 $x948 $x1532 $x2506 $x252 $x1115 $x48 $x1730)))))))))))
(assert
 (let (($x2792 (= cell_4_2 9)))
 (let (($x4211 (= cell_4_2 8)))
 (let (($x3135 (= cell_4_2 7)))
 (let (($x2325 (= cell_4_2 6)))
 (let (($x1081 (= cell_4_2 5)))
 (let (($x1896 (= cell_4_2 4)))
 (let (($x792 (= cell_4_2 3)))
 (let (($x3044 (= cell_4_2 2)))
 (let (($x3039 (= cell_4_2 1)))
 (or $x3039 $x3044 $x792 $x1896 $x1081 $x2325 $x3135 $x4211 $x2792)))))))))))
(assert
 (let (($x3654 (= cell_5_2 9)))
 (let (($x320 (= cell_5_2 8)))
 (let (($x856 (= cell_5_2 7)))
 (let (($x2690 (= cell_5_2 6)))
 (let (($x1556 (= cell_5_2 5)))
 (let (($x968 (= cell_5_2 4)))
 (let (($x1987 (= cell_5_2 3)))
 (let (($x2604 (= cell_5_2 2)))
 (let (($x3814 (= cell_5_2 1)))
 (or $x3814 $x2604 $x1987 $x968 $x1556 $x2690 $x856 $x320 $x3654)))))))))))
(assert
 (let (($x3207 (= cell_6_2 9)))
 (let (($x644 (= cell_6_2 8)))
 (let (($x1140 (= cell_6_2 7)))
 (let (($x466 (= cell_6_2 6)))
 (let (($x1269 (= cell_6_2 5)))
 (let (($x2583 (= cell_6_2 4)))
 (let (($x839 (= cell_6_2 3)))
 (let (($x294 (= cell_6_2 2)))
 (let (($x4053 (= cell_6_2 1)))
 (or $x4053 $x294 $x839 $x2583 $x1269 $x466 $x1140 $x644 $x3207)))))))))))
(assert
 (let (($x2648 (= cell_7_2 9)))
 (let (($x2874 (= cell_7_2 8)))
 (let (($x1769 (= cell_7_2 7)))
 (let (($x2049 (= cell_7_2 6)))
 (let (($x3399 (= cell_7_2 5)))
 (let (($x3534 (= cell_7_2 4)))
 (let (($x108 (= cell_7_2 3)))
 (let (($x1214 (= cell_7_2 2)))
 (let (($x2691 (= cell_7_2 1)))
 (or $x2691 $x1214 $x108 $x3534 $x3399 $x2049 $x1769 $x2874 $x2648)))))))))))
(assert
 (let (($x1574 (= cell_8_2 9)))
 (let (($x3703 (= cell_8_2 8)))
 (let (($x3702 (= cell_8_2 7)))
 (let (($x987 (= cell_8_2 6)))
 (let (($x293 (= cell_8_2 5)))
 (let (($x236 (= cell_8_2 4)))
 (let (($x1456 (= cell_8_2 3)))
 (let (($x2970 (= cell_8_2 2)))
 (let (($x1057 (= cell_8_2 1)))
 (or $x1057 $x2970 $x1456 $x236 $x293 $x987 $x3702 $x3703 $x1574)))))))))))
(assert
 (let (($x2998 (= cell_9_2 2)))
 (let (($x413 (= cell_9_2 1)))
 (or $x413 $x2998 (= cell_9_2 3) (= cell_9_2 4) (= cell_9_2 5) (= cell_9_2 6) (= cell_9_2 7) (= cell_9_2 8) (= cell_9_2 9)))))
(assert
 (let (($x2083 (= cell_1_3 9)))
 (let (($x1862 (= cell_1_3 8)))
 (let (($x882 (= cell_1_3 7)))
 (let (($x4052 (= cell_1_3 6)))
 (let (($x3290 (= cell_1_3 5)))
 (let (($x165 (= cell_1_3 4)))
 (let (($x850 (= cell_1_3 3)))
 (let (($x387 (= cell_1_3 2)))
 (let (($x129 (= cell_1_3 1)))
 (or $x129 $x387 $x850 $x165 $x3290 $x4052 $x882 $x1862 $x2083)))))))))))
(assert
 (let (($x3496 (= cell_2_3 9)))
 (let (($x1152 (= cell_2_3 8)))
 (let (($x2019 (= cell_2_3 7)))
 (let (($x926 (= cell_2_3 6)))
 (let (($x4227 (= cell_2_3 5)))
 (let (($x3492 (= cell_2_3 4)))
 (let (($x2048 (= cell_2_3 3)))
 (let (($x2478 (= cell_2_3 2)))
 (let (($x1361 (= cell_2_3 1)))
 (or $x1361 $x2478 $x2048 $x3492 $x4227 $x926 $x2019 $x1152 $x3496)))))))))))
(assert
 (let (($x2616 (= cell_3_3 9)))
 (let (($x3507 (= cell_3_3 8)))
 (let (($x7872 (= cell_3_3 7)))
 (let (($x2763 (= cell_3_3 6)))
 (let (($x1625 (= cell_3_3 5)))
 (let (($x633 (= cell_3_3 4)))
 (let (($x526 (= cell_3_3 3)))
 (let (($x2475 (= cell_3_3 2)))
 (let (($x3706 (= cell_3_3 1)))
 (or $x3706 $x2475 $x526 $x633 $x1625 $x2763 $x7872 $x3507 $x2616)))))))))))
(assert
 (let (($x1168 (= cell_4_3 9)))
 (let (($x2938 (= cell_4_3 8)))
 (let (($x668 (= cell_4_3 7)))
 (let (($x3959 (= cell_4_3 6)))
 (let (($x2936 (= cell_4_3 5)))
 (let (($x167 (= cell_4_3 4)))
 (let (($x3405 (= cell_4_3 3)))
 (let (($x96 (= cell_4_3 2)))
 (let (($x153 (= cell_4_3 1)))
 (or $x153 $x96 $x3405 $x167 $x2936 $x3959 $x668 $x2938 $x1168)))))))))))
(assert
 (let (($x738 (= cell_5_3 1)))
 (or $x738 (= cell_5_3 2) (= cell_5_3 3) (= cell_5_3 4) (= cell_5_3 5) (= cell_5_3 6) (= cell_5_3 7) (= cell_5_3 8) (= cell_5_3 9))))
(assert
 (let (($x3843 (= cell_6_3 9)))
 (let (($x1595 (= cell_6_3 8)))
 (let (($x2065 (= cell_6_3 7)))
 (let (($x1209 (= cell_6_3 6)))
 (let (($x147 (= cell_6_3 5)))
 (let (($x3264 (= cell_6_3 4)))
 (let (($x364 (= cell_6_3 3)))
 (let (($x1474 (= cell_6_3 2)))
 (let (($x3515 (= cell_6_3 1)))
 (or $x3515 $x1474 $x364 $x3264 $x147 $x1209 $x2065 $x1595 $x3843)))))))))))
(assert
 (let (($x6 (= cell_7_3 9)))
 (let (($x3096 (= cell_7_3 8)))
 (let (($x3376 (= cell_7_3 7)))
 (let (($x2442 (= cell_7_3 6)))
 (let (($x2391 (= cell_7_3 5)))
 (let (($x1733 (= cell_7_3 4)))
 (let (($x4061 (= cell_7_3 3)))
 (let (($x93 (= cell_7_3 2)))
 (let (($x2385 (= cell_7_3 1)))
 (or $x2385 $x93 $x4061 $x1733 $x2391 $x2442 $x3376 $x3096 $x6)))))))))))
(assert
 (let (($x840 (= cell_8_3 9)))
 (let (($x2107 (= cell_8_3 8)))
 (let (($x2797 (= cell_8_3 7)))
 (let (($x3450 (= cell_8_3 6)))
 (let (($x3400 (= cell_8_3 5)))
 (let (($x2170 (= cell_8_3 4)))
 (let (($x3454 (= cell_8_3 3)))
 (let (($x446 (= cell_8_3 2)))
 (let (($x1652 (= cell_8_3 1)))
 (or $x1652 $x446 $x3454 $x2170 $x3400 $x3450 $x2797 $x2107 $x840)))))))))))
(assert
 (let (($x1557 (= cell_9_3 1)))
 (or $x1557 (= cell_9_3 2) (= cell_9_3 3) (= cell_9_3 4) (= cell_9_3 5) (= cell_9_3 6) (= cell_9_3 7) (= cell_9_3 8) (= cell_9_3 9))))
(assert
 (let (($x2580 (= cell_1_4 9)))
 (let (($x3012 (= cell_1_4 8)))
 (let (($x1327 (= cell_1_4 7)))
 (let (($x2331 (= cell_1_4 6)))
 (let (($x2931 (= cell_1_4 5)))
 (let (($x2545 (= cell_1_4 4)))
 (let (($x1123 (= cell_1_4 3)))
 (let (($x3386 (= cell_1_4 2)))
 (let (($x1721 (= cell_1_4 1)))
 (or $x1721 $x3386 $x1123 $x2545 $x2931 $x2331 $x1327 $x3012 $x2580)))))))))))
(assert
 (let (($x1293 (= cell_2_4 9)))
 (let (($x2096 (= cell_2_4 8)))
 (let (($x2054 (= cell_2_4 7)))
 (let (($x2601 (= cell_2_4 6)))
 (let (($x1544 (= cell_2_4 5)))
 (let (($x2244 (= cell_2_4 4)))
 (let (($x1463 (= cell_2_4 3)))
 (let (($x2677 (= cell_2_4 2)))
 (let (($x2844 (= cell_2_4 1)))
 (or $x2844 $x2677 $x1463 $x2244 $x1544 $x2601 $x2054 $x2096 $x1293)))))))))))
(assert
 (let (($x958 (= cell_3_4 9)))
 (let (($x502 (= cell_3_4 8)))
 (let (($x2046 (= cell_3_4 7)))
 (let (($x2163 (= cell_3_4 6)))
 (let (($x1210 (= cell_3_4 5)))
 (let (($x3308 (= cell_3_4 4)))
 (let (($x1565 (= cell_3_4 3)))
 (let (($x1337 (= cell_3_4 2)))
 (let (($x434 (= cell_3_4 1)))
 (or $x434 $x1337 $x1565 $x3308 $x1210 $x2163 $x2046 $x502 $x958)))))))))))
(assert
 (let (($x2658 (= cell_4_4 1)))
 (or $x2658 (= cell_4_4 2) (= cell_4_4 3) (= cell_4_4 4) (= cell_4_4 5) (= cell_4_4 6) (= cell_4_4 7) (= cell_4_4 8) (= cell_4_4 9))))
(assert
 (let (($x2376 (= cell_5_4 9)))
 (let (($x822 (= cell_5_4 8)))
 (let (($x1201 (= cell_5_4 7)))
 (let (($x660 (= cell_5_4 6)))
 (let (($x1454 (= cell_5_4 5)))
 (let (($x3521 (= cell_5_4 4)))
 (let (($x828 (= cell_5_4 3)))
 (let (($x3724 (= cell_5_4 2)))
 (let (($x605 (= cell_5_4 1)))
 (or $x605 $x3724 $x828 $x3521 $x1454 $x660 $x1201 $x822 $x2376)))))))))))
(assert
 (let (($x1071 (= cell_6_4 9)))
 (let (($x2431 (= cell_6_4 8)))
 (let (($x2267 (= cell_6_4 7)))
 (let (($x375 (= cell_6_4 6)))
 (let (($x470 (= cell_6_4 5)))
 (let (($x815 (= cell_6_4 4)))
 (let (($x241 (= cell_6_4 3)))
 (let (($x1717 (= cell_6_4 2)))
 (let (($x1876 (= cell_6_4 1)))
 (or $x1876 $x1717 $x241 $x815 $x470 $x375 $x2267 $x2431 $x1071)))))))))))
(assert
 (let (($x76 (= cell_7_4 9)))
 (let (($x1413 (= cell_7_4 8)))
 (let (($x3916 (= cell_7_4 7)))
 (let (($x3475 (= cell_7_4 6)))
 (let (($x2711 (= cell_7_4 5)))
 (let (($x2707 (= cell_7_4 4)))
 (let (($x2857 (= cell_7_4 3)))
 (let (($x2489 (= cell_7_4 2)))
 (let (($x2454 (= cell_7_4 1)))
 (or $x2454 $x2489 $x2857 $x2707 $x2711 $x3475 $x3916 $x1413 $x76)))))))))))
(assert
 (let (($x2461 (= cell_8_4 9)))
 (let (($x739 (= cell_8_4 8)))
 (let (($x747 (= cell_8_4 7)))
 (let (($x3720 (= cell_8_4 6)))
 (let (($x3887 (= cell_8_4 5)))
 (let (($x2369 (= cell_8_4 4)))
 (let (($x1858 (= cell_8_4 3)))
 (let (($x1774 (= cell_8_4 2)))
 (let (($x3508 (= cell_8_4 1)))
 (or $x3508 $x1774 $x1858 $x2369 $x3887 $x3720 $x747 $x739 $x2461)))))))))))
(assert
 (let (($x2010 (= cell_9_4 1)))
 (or $x2010 (= cell_9_4 2) (= cell_9_4 3) (= cell_9_4 4) (= cell_9_4 5) (= cell_9_4 6) (= cell_9_4 7) (= cell_9_4 8) (= cell_9_4 9))))
(assert
 (let (($x3358 (= cell_1_5 9)))
 (let (($x1233 (= cell_1_5 8)))
 (let (($x2111 (= cell_1_5 7)))
 (let (($x2776 (= cell_1_5 6)))
 (let (($x2581 (= cell_1_5 5)))
 (let (($x3988 (= cell_1_5 4)))
 (let (($x1378 (= cell_1_5 3)))
 (let (($x582 (= cell_1_5 2)))
 (let (($x1191 (= cell_1_5 1)))
 (or $x1191 $x582 $x1378 $x3988 $x2581 $x2776 $x2111 $x1233 $x3358)))))))))))
(assert
 (let (($x1604 (= cell_2_5 9)))
 (let (($x706 (= cell_2_5 8)))
 (let (($x1791 (= cell_2_5 7)))
 (let (($x2960 (= cell_2_5 6)))
 (let (($x2015 (= cell_2_5 5)))
 (let (($x1612 (= cell_2_5 4)))
 (let (($x1575 (= cell_2_5 3)))
 (let (($x2778 (= cell_2_5 2)))
 (let (($x2919 (= cell_2_5 1)))
 (or $x2919 $x2778 $x1575 $x1612 $x2015 $x2960 $x1791 $x706 $x1604)))))))))))
(assert
 (let (($x2053 (= cell_3_5 9)))
 (let (($x7962 (= cell_3_5 8)))
 (let (($x3224 (= cell_3_5 7)))
 (let (($x3618 (= cell_3_5 6)))
 (let (($x2573 (= cell_3_5 5)))
 (let (($x1815 (= cell_3_5 4)))
 (let (($x1003 (= cell_3_5 3)))
 (let (($x2257 (= cell_3_5 2)))
 (let (($x2032 (= cell_3_5 1)))
 (or $x2032 $x2257 $x1003 $x1815 $x2573 $x3618 $x3224 $x7962 $x2053)))))))))))
(assert
 (let (($x3854 (= cell_4_5 9)))
 (let (($x837 (= cell_4_5 8)))
 (let (($x884 (= cell_4_5 7)))
 (let (($x1462 (= cell_4_5 6)))
 (let (($x2981 (= cell_4_5 5)))
 (let (($x35 (= cell_4_5 4)))
 (let (($x4064 (= cell_4_5 3)))
 (let (($x3858 (= cell_4_5 2)))
 (let (($x549 (= cell_4_5 1)))
 (or $x549 $x3858 $x4064 $x35 $x2981 $x1462 $x884 $x837 $x3854)))))))))))
(assert
 (let (($x142 (= cell_5_5 9)))
 (let (($x1112 (= cell_5_5 8)))
 (let (($x51 (= cell_5_5 7)))
 (let (($x2533 (= cell_5_5 6)))
 (let (($x936 (= cell_5_5 5)))
 (let (($x1181 (= cell_5_5 4)))
 (let (($x3727 (= cell_5_5 3)))
 (let (($x1893 (= cell_5_5 2)))
 (let (($x3667 (= cell_5_5 1)))
 (or $x3667 $x1893 $x3727 $x1181 $x936 $x2533 $x51 $x1112 $x142)))))))))))
(assert
 (let (($x1665 (= cell_6_5 9)))
 (let (($x490 (= cell_6_5 8)))
 (let (($x3336 (= cell_6_5 7)))
 (let (($x3750 (= cell_6_5 6)))
 (let (($x2838 (= cell_6_5 5)))
 (let (($x3242 (= cell_6_5 4)))
 (let (($x4025 (= cell_6_5 3)))
 (let (($x2003 (= cell_6_5 2)))
 (let (($x871 (= cell_6_5 1)))
 (or $x871 $x2003 $x4025 $x3242 $x2838 $x3750 $x3336 $x490 $x1665)))))))))))
(assert
 (let (($x666 (= cell_7_5 1)))
 (or $x666 (= cell_7_5 2) (= cell_7_5 3) (= cell_7_5 4) (= cell_7_5 5) (= cell_7_5 6) (= cell_7_5 7) (= cell_7_5 8) (= cell_7_5 9))))
(assert
 (let (($x2155 (= cell_8_5 9)))
 (let (($x3749 (= cell_8_5 8)))
 (let (($x1662 (= cell_8_5 7)))
 (let (($x920 (= cell_8_5 6)))
 (let (($x2738 (= cell_8_5 5)))
 (let (($x1918 (= cell_8_5 4)))
 (let (($x4224 (= cell_8_5 3)))
 (let (($x2416 (= cell_8_5 2)))
 (let (($x2089 (= cell_8_5 1)))
 (or $x2089 $x2416 $x4224 $x1918 $x2738 $x920 $x1662 $x3749 $x2155)))))))))))
(assert
 (let (($x2536 (= cell_9_5 1)))
 (or $x2536 (= cell_9_5 2) (= cell_9_5 3) (= cell_9_5 4) (= cell_9_5 5) (= cell_9_5 6) (= cell_9_5 7) (= cell_9_5 8) (= cell_9_5 9))))
(assert
 (let (($x2030 (= cell_1_6 2)))
 (or (= cell_1_6 1) $x2030 (= cell_1_6 3) (= cell_1_6 4) (= cell_1_6 5) (= cell_1_6 6) (= cell_1_6 7) (= cell_1_6 8) (= cell_1_6 9))))
(assert
 (let (($x7700 (= cell_2_6 1)))
 (or $x7700 (= cell_2_6 2) (= cell_2_6 3) (= cell_2_6 4) (= cell_2_6 5) (= cell_2_6 6) (= cell_2_6 7) (= cell_2_6 8) (= cell_2_6 9))))
(assert
 (let (($x8025 (= cell_3_6 9)))
 (let (($x1478 (= cell_3_6 8)))
 (let (($x4125 (= cell_3_6 7)))
 (let (($x686 (= cell_3_6 6)))
 (let (($x3679 (= cell_3_6 5)))
 (let (($x1045 (= cell_3_6 4)))
 (let (($x2220 (= cell_3_6 3)))
 (let (($x223 (= cell_3_6 2)))
 (let (($x494 (= cell_3_6 1)))
 (or $x494 $x223 $x2220 $x1045 $x3679 $x686 $x4125 $x1478 $x8025)))))))))))
(assert
 (let (($x704 (= cell_4_6 9)))
 (let (($x1629 (= cell_4_6 8)))
 (let (($x7986 (= cell_4_6 7)))
 (let (($x2680 (= cell_4_6 6)))
 (let (($x2821 (= cell_4_6 5)))
 (let (($x2559 (= cell_4_6 4)))
 (let (($x2684 (= cell_4_6 3)))
 (let (($x2279 (= cell_4_6 2)))
 (let (($x99 (= cell_4_6 1)))
 (or $x99 $x2279 $x2684 $x2559 $x2821 $x2680 $x7986 $x1629 $x704)))))))))))
(assert
 (let (($x2473 (= cell_5_6 2)))
 (let (($x3140 (= cell_5_6 1)))
 (or $x3140 $x2473 (= cell_5_6 3) (= cell_5_6 4) (= cell_5_6 5) (= cell_5_6 6) (= cell_5_6 7) (= cell_5_6 8) (= cell_5_6 9)))))
(assert
 (let (($x642 (= cell_6_6 9)))
 (let (($x2041 (= cell_6_6 8)))
 (let (($x1757 (= cell_6_6 7)))
 (let (($x1398 (= cell_6_6 6)))
 (let (($x3341 (= cell_6_6 5)))
 (let (($x91 (= cell_6_6 4)))
 (let (($x2814 (= cell_6_6 3)))
 (let (($x3762 (= cell_6_6 2)))
 (let (($x3643 (= cell_6_6 1)))
 (or $x3643 $x3762 $x2814 $x91 $x3341 $x1398 $x1757 $x2041 $x642)))))))))))
(assert
 (let (($x1581 (= cell_7_6 9)))
 (let (($x3134 (= cell_7_6 8)))
 (let (($x2079 (= cell_7_6 7)))
 (let (($x901 (= cell_7_6 6)))
 (let (($x2100 (= cell_7_6 5)))
 (let (($x1058 (= cell_7_6 4)))
 (let (($x3014 (= cell_7_6 3)))
 (let (($x3562 (= cell_7_6 2)))
 (let (($x1882 (= cell_7_6 1)))
 (or $x1882 $x3562 $x3014 $x1058 $x2100 $x901 $x2079 $x3134 $x1581)))))))))))
(assert
 (let (($x3434 (= cell_8_6 9)))
 (let (($x2094 (= cell_8_6 8)))
 (let (($x2131 (= cell_8_6 7)))
 (let (($x386 (= cell_8_6 6)))
 (let (($x1384 (= cell_8_6 5)))
 (let (($x3832 (= cell_8_6 4)))
 (let (($x818 (= cell_8_6 3)))
 (let (($x3342 (= cell_8_6 2)))
 (let (($x2271 (= cell_8_6 1)))
 (or $x2271 $x3342 $x818 $x3832 $x1384 $x386 $x2131 $x2094 $x3434)))))))))))
(assert
 (let (($x2099 (= cell_9_6 2)))
 (let (($x1011 (= cell_9_6 1)))
 (or $x1011 $x2099 (= cell_9_6 3) (= cell_9_6 4) (= cell_9_6 5) (= cell_9_6 6) (= cell_9_6 7) (= cell_9_6 8) (= cell_9_6 9)))))
(assert
 (let (($x3060 (= cell_1_7 9)))
 (let (($x2132 (= cell_1_7 8)))
 (let (($x7762 (= cell_1_7 7)))
 (let (($x1366 (= cell_1_7 6)))
 (let (($x2071 (= cell_1_7 5)))
 (let (($x1392 (= cell_1_7 4)))
 (let (($x2784 (= cell_1_7 3)))
 (let (($x600 (= cell_1_7 2)))
 (let (($x3047 (= cell_1_7 1)))
 (or $x3047 $x600 $x2784 $x1392 $x2071 $x1366 $x7762 $x2132 $x3060)))))))))))
(assert
 (let (($x897 (= cell_2_7 9)))
 (let (($x2494 (= cell_2_7 8)))
 (let (($x768 (= cell_2_7 7)))
 (let (($x2427 (= cell_2_7 6)))
 (let (($x8016 (= cell_2_7 5)))
 (let (($x2263 (= cell_2_7 4)))
 (let (($x152 (= cell_2_7 3)))
 (let (($x2623 (= cell_2_7 2)))
 (let (($x4043 (= cell_2_7 1)))
 (or $x4043 $x2623 $x152 $x2263 $x8016 $x2427 $x768 $x2494 $x897)))))))))))
(assert
 (let (($x1598 (= cell_3_7 9)))
 (let (($x7853 (= cell_3_7 8)))
 (let (($x1993 (= cell_3_7 7)))
 (let (($x1173 (= cell_3_7 6)))
 (let (($x1274 (= cell_3_7 5)))
 (let (($x3974 (= cell_3_7 4)))
 (let (($x424 (= cell_3_7 3)))
 (let (($x2626 (= cell_3_7 2)))
 (let (($x1294 (= cell_3_7 1)))
 (or $x1294 $x2626 $x424 $x3974 $x1274 $x1173 $x1993 $x7853 $x1598)))))))))))
(assert
 (let (($x2853 (= cell_4_7 9)))
 (let (($x1741 (= cell_4_7 8)))
 (let (($x7885 (= cell_4_7 7)))
 (let (($x7668 (= cell_4_7 6)))
 (let (($x671 (= cell_4_7 5)))
 (let (($x3604 (= cell_4_7 4)))
 (let (($x3436 (= cell_4_7 3)))
 (let (($x2345 (= cell_4_7 2)))
 (let (($x1089 (= cell_4_7 1)))
 (or $x1089 $x2345 $x3436 $x3604 $x671 $x7668 $x7885 $x1741 $x2853)))))))))))
(assert
 (let (($x783 (= cell_5_7 9)))
 (let (($x2264 (= cell_5_7 8)))
 (let (($x1889 (= cell_5_7 7)))
 (let (($x826 (= cell_5_7 6)))
 (let (($x3518 (= cell_5_7 5)))
 (let (($x77 (= cell_5_7 4)))
 (let (($x1904 (= cell_5_7 3)))
 (let (($x1938 (= cell_5_7 2)))
 (let (($x2110 (= cell_5_7 1)))
 (or $x2110 $x1938 $x1904 $x77 $x3518 $x826 $x1889 $x2264 $x783)))))))))))
(assert
 (let (($x166 (= cell_6_7 9)))
 (let (($x3855 (= cell_6_7 8)))
 (let (($x50 (= cell_6_7 7)))
 (let (($x1225 (= cell_6_7 6)))
 (let (($x1506 (= cell_6_7 5)))
 (let (($x4076 (= cell_6_7 4)))
 (let (($x19 (= cell_6_7 3)))
 (let (($x2334 (= cell_6_7 2)))
 (let (($x1978 (= cell_6_7 1)))
 (or $x1978 $x2334 $x19 $x4076 $x1506 $x1225 $x50 $x3855 $x166)))))))))))
(assert
 (let (($x2352 (= cell_7_7 9)))
 (let (($x3932 (= cell_7_7 8)))
 (let (($x420 (= cell_7_7 7)))
 (let (($x2026 (= cell_7_7 6)))
 (let (($x2303 (= cell_7_7 5)))
 (let (($x388 (= cell_7_7 4)))
 (let (($x1577 (= cell_7_7 3)))
 (let (($x7839 (= cell_7_7 2)))
 (let (($x266 (= cell_7_7 1)))
 (or $x266 $x7839 $x1577 $x388 $x2303 $x2026 $x420 $x3932 $x2352)))))))))))
(assert
 (let (($x632 (= cell_8_7 1)))
 (or $x632 (= cell_8_7 2) (= cell_8_7 3) (= cell_8_7 4) (= cell_8_7 5) (= cell_8_7 6) (= cell_8_7 7) (= cell_8_7 8) (= cell_8_7 9))))
(assert
 (let (($x2342 (= cell_9_7 1)))
 (or $x2342 (= cell_9_7 2) (= cell_9_7 3) (= cell_9_7 4) (= cell_9_7 5) (= cell_9_7 6) (= cell_9_7 7) (= cell_9_7 8) (= cell_9_7 9))))
(assert
 (let (($x2081 (= cell_1_8 9)))
 (let (($x1248 (= cell_1_8 8)))
 (let (($x535 (= cell_1_8 7)))
 (let (($x2595 (= cell_1_8 6)))
 (let (($x812 (= cell_1_8 5)))
 (let (($x3472 (= cell_1_8 4)))
 (let (($x763 (= cell_1_8 3)))
 (let (($x3647 (= cell_1_8 2)))
 (let (($x1902 (= cell_1_8 1)))
 (or $x1902 $x3647 $x763 $x3472 $x812 $x2595 $x535 $x1248 $x2081)))))))))))
(assert
 (let (($x74 (= cell_2_8 9)))
 (let (($x1715 (= cell_2_8 8)))
 (let (($x1393 (= cell_2_8 7)))
 (let (($x489 (= cell_2_8 6)))
 (let (($x3403 (= cell_2_8 5)))
 (let (($x240 (= cell_2_8 4)))
 (let (($x2678 (= cell_2_8 3)))
 (let (($x888 (= cell_2_8 2)))
 (let (($x787 (= cell_2_8 1)))
 (or $x787 $x888 $x2678 $x240 $x3403 $x489 $x1393 $x1715 $x74)))))))))))
(assert
 (let (($x2344 (= cell_3_8 2)))
 (or (= cell_3_8 1) $x2344 (= cell_3_8 3) (= cell_3_8 4) (= cell_3_8 5) (= cell_3_8 6) (= cell_3_8 7) (= cell_3_8 8) (= cell_3_8 9))))
(assert
 (let (($x2670 (= cell_4_8 9)))
 (let (($x2785 (= cell_4_8 8)))
 (let (($x594 (= cell_4_8 7)))
 (let (($x3339 (= cell_4_8 6)))
 (let (($x1985 (= cell_4_8 5)))
 (let (($x3229 (= cell_4_8 4)))
 (let (($x2720 (= cell_4_8 3)))
 (let (($x1289 (= cell_4_8 2)))
 (let (($x1973 (= cell_4_8 1)))
 (or $x1973 $x1289 $x2720 $x3229 $x1985 $x3339 $x594 $x2785 $x2670)))))))))))
(assert
 (let (($x276 (= cell_5_8 9)))
 (let (($x885 (= cell_5_8 8)))
 (let (($x1443 (= cell_5_8 7)))
 (let (($x361 (= cell_5_8 6)))
 (let (($x1006 (= cell_5_8 5)))
 (let (($x2377 (= cell_5_8 4)))
 (let (($x311 (= cell_5_8 3)))
 (let (($x1775 (= cell_5_8 2)))
 (let (($x1255 (= cell_5_8 1)))
 (or $x1255 $x1775 $x311 $x2377 $x1006 $x361 $x1443 $x885 $x276)))))))))))
(assert
 (let (($x1515 (= cell_6_8 1)))
 (or $x1515 (= cell_6_8 2) (= cell_6_8 3) (= cell_6_8 4) (= cell_6_8 5) (= cell_6_8 6) (= cell_6_8 7) (= cell_6_8 8) (= cell_6_8 9))))
(assert
 (let (($x1855 (= cell_7_8 9)))
 (let (($x1952 (= cell_7_8 8)))
 (let (($x457 (= cell_7_8 7)))
 (let (($x2476 (= cell_7_8 6)))
 (let (($x2685 (= cell_7_8 5)))
 (let (($x848 (= cell_7_8 4)))
 (let (($x928 (= cell_7_8 3)))
 (let (($x1338 (= cell_7_8 2)))
 (let (($x2141 (= cell_7_8 1)))
 (or $x2141 $x1338 $x928 $x848 $x2685 $x2476 $x457 $x1952 $x1855)))))))))))
(assert
 (let (($x1692 (= cell_8_8 2)))
 (let (($x377 (= cell_8_8 1)))
 (or $x377 $x1692 (= cell_8_8 3) (= cell_8_8 4) (= cell_8_8 5) (= cell_8_8 6) (= cell_8_8 7) (= cell_8_8 8) (= cell_8_8 9)))))
(assert
 (let (($x438 (= cell_9_8 2)))
 (let (($x1756 (= cell_9_8 1)))
 (or $x1756 $x438 (= cell_9_8 3) (= cell_9_8 4) (= cell_9_8 5) (= cell_9_8 6) (= cell_9_8 7) (= cell_9_8 8) (= cell_9_8 9)))))
(assert
 (let (($x2607 (= cell_1_9 9)))
 (let (($x961 (= cell_1_9 8)))
 (let (($x13 (= cell_1_9 7)))
 (let (($x145 (= cell_1_9 6)))
 (let (($x1064 (= cell_1_9 5)))
 (let (($x2420 (= cell_1_9 4)))
 (let (($x1593 (= cell_1_9 3)))
 (let (($x743 (= cell_1_9 2)))
 (let (($x680 (= cell_1_9 1)))
 (or $x680 $x743 $x1593 $x2420 $x1064 $x145 $x13 $x961 $x2607)))))))))))
(assert
 (let (($x296 (= cell_2_9 9)))
 (let (($x1469 (= cell_2_9 8)))
 (let (($x402 (= cell_2_9 7)))
 (let (($x3133 (= cell_2_9 6)))
 (let (($x1161 (= cell_2_9 5)))
 (let (($x7666 (= cell_2_9 4)))
 (let (($x333 (= cell_2_9 3)))
 (let (($x349 (= cell_2_9 2)))
 (let (($x184 (= cell_2_9 1)))
 (or $x184 $x349 $x333 $x7666 $x1161 $x3133 $x402 $x1469 $x296)))))))))))
(assert
 (let (($x3852 (= cell_3_9 1)))
 (or $x3852 (= cell_3_9 2) (= cell_3_9 3) (= cell_3_9 4) (= cell_3_9 5) (= cell_3_9 6) (= cell_3_9 7) (= cell_3_9 8) (= cell_3_9 9))))
(assert
 (let (($x2493 (= cell_4_9 2)))
 (or (= cell_4_9 1) $x2493 (= cell_4_9 3) (= cell_4_9 4) (= cell_4_9 5) (= cell_4_9 6) (= cell_4_9 7) (= cell_4_9 8) (= cell_4_9 9))))
(assert
 (let (($x1285 (= cell_5_9 9)))
 (let (($x53 (= cell_5_9 8)))
 (let (($x2800 (= cell_5_9 7)))
 (let (($x2500 (= cell_5_9 6)))
 (let (($x667 (= cell_5_9 5)))
 (let (($x3457 (= cell_5_9 4)))
 (let (($x7788 (= cell_5_9 3)))
 (let (($x1609 (= cell_5_9 2)))
 (let (($x2411 (= cell_5_9 1)))
 (or $x2411 $x1609 $x7788 $x3457 $x667 $x2500 $x2800 $x53 $x1285)))))))))))
(assert
 (let (($x1141 (= cell_6_9 2)))
 (let (($x1303 (= cell_6_9 1)))
 (or $x1303 $x1141 (= cell_6_9 3) (= cell_6_9 4) (= cell_6_9 5) (= cell_6_9 6) (= cell_6_9 7) (= cell_6_9 8) (= cell_6_9 9)))))
(assert
 (let (($x1319 (= cell_7_9 9)))
 (let (($x1529 (= cell_7_9 8)))
 (let (($x2650 (= cell_7_9 7)))
 (let (($x1070 (= cell_7_9 6)))
 (let (($x2540 (= cell_7_9 5)))
 (let (($x1291 (= cell_7_9 4)))
 (let (($x2907 (= cell_7_9 3)))
 (let (($x4228 (= cell_7_9 2)))
 (let (($x1118 (= cell_7_9 1)))
 (or $x1118 $x4228 $x2907 $x1291 $x2540 $x1070 $x2650 $x1529 $x1319)))))))))))
(assert
 (let (($x169 (= cell_8_9 2)))
 (let (($x636 (= cell_8_9 1)))
 (or $x636 $x169 (= cell_8_9 3) (= cell_8_9 4) (= cell_8_9 5) (= cell_8_9 6) (= cell_8_9 7) (= cell_8_9 8) (= cell_8_9 9)))))
(assert
 (let (($x1752 (= cell_9_9 2)))
 (let (($x1159 (= cell_9_9 1)))
 (or $x1159 $x1752 (= cell_9_9 3) (= cell_9_9 4) (= cell_9_9 5) (= cell_9_9 6) (= cell_9_9 7) (= cell_9_9 8) (= cell_9_9 9)))))
(assert
 (and (distinct cell_1_1 cell_1_2 cell_1_3 cell_1_4 cell_1_5 cell_1_6 cell_1_7 cell_1_8 cell_1_9) true))
(assert
 (and (distinct cell_2_1 cell_2_2 cell_2_3 cell_2_4 cell_2_5 cell_2_6 cell_2_7 cell_2_8 cell_2_9) true))
(assert
 (and (distinct cell_3_1 cell_3_2 cell_3_3 cell_3_4 cell_3_5 cell_3_6 cell_3_7 cell_3_8 cell_3_9) true))
(assert
 (and (distinct cell_4_1 cell_4_2 cell_4_3 cell_4_4 cell_4_5 cell_4_6 cell_4_7 cell_4_8 cell_4_9) true))
(assert
 (and (distinct cell_5_1 cell_5_2 cell_5_3 cell_5_4 cell_5_5 cell_5_6 cell_5_7 cell_5_8 cell_5_9) true))
(assert
 (and (distinct cell_6_1 cell_6_2 cell_6_3 cell_6_4 cell_6_5 cell_6_6 cell_6_7 cell_6_8 cell_6_9) true))
(assert
 (and (distinct cell_7_1 cell_7_2 cell_7_3 cell_7_4 cell_7_5 cell_7_6 cell_7_7 cell_7_8 cell_7_9) true))
(assert
 (and (distinct cell_8_1 cell_8_2 cell_8_3 cell_8_4 cell_8_5 cell_8_6 cell_8_7 cell_8_8 cell_8_9) true))
(assert
 (and (distinct cell_9_1 cell_9_2 cell_9_3 cell_9_4 cell_9_5 cell_9_6 cell_9_7 cell_9_8 cell_9_9) true))
(assert
 (and (distinct cell_1_1 cell_2_1 cell_3_1 cell_4_1 cell_5_1 cell_6_1 cell_7_1 cell_8_1 cell_9_1) true))
(assert
 (and (distinct cell_1_2 cell_2_2 cell_3_2 cell_4_2 cell_5_2 cell_6_2 cell_7_2 cell_8_2 cell_9_2) true))
(assert
 (and (distinct cell_1_3 cell_2_3 cell_3_3 cell_4_3 cell_5_3 cell_6_3 cell_7_3 cell_8_3 cell_9_3) true))
(assert
 (and (distinct cell_1_4 cell_2_4 cell_3_4 cell_4_4 cell_5_4 cell_6_4 cell_7_4 cell_8_4 cell_9_4) true))
(assert
 (and (distinct cell_1_5 cell_2_5 cell_3_5 cell_4_5 cell_5_5 cell_6_5 cell_7_5 cell_8_5 cell_9_5) true))
(assert
 (and (distinct cell_1_6 cell_2_6 cell_3_6 cell_4_6 cell_5_6 cell_6_6 cell_7_6 cell_8_6 cell_9_6) true))
(assert
 (and (distinct cell_1_7 cell_2_7 cell_3_7 cell_4_7 cell_5_7 cell_6_7 cell_7_7 cell_8_7 cell_9_7) true))
(assert
 (and (distinct cell_1_8 cell_2_8 cell_3_8 cell_4_8 cell_5_8 cell_6_8 cell_7_8 cell_8_8 cell_9_8) true))
(assert
 (and (distinct cell_1_9 cell_2_9 cell_3_9 cell_4_9 cell_5_9 cell_6_9 cell_7_9 cell_8_9 cell_9_9) true))
(assert
 (and (distinct cell_1_1 cell_1_2 cell_1_3 cell_2_1 cell_2_2 cell_2_3 cell_3_1 cell_3_2 cell_3_3) true))
(assert
 (and (distinct cell_1_4 cell_1_5 cell_1_6 cell_2_4 cell_2_5 cell_2_6 cell_3_4 cell_3_5 cell_3_6) true))
(assert
 (and (distinct cell_1_7 cell_1_8 cell_1_9 cell_2_7 cell_2_8 cell_2_9 cell_3_7 cell_3_8 cell_3_9) true))
(assert
 (and (distinct cell_4_1 cell_4_2 cell_4_3 cell_5_1 cell_5_2 cell_5_3 cell_6_1 cell_6_2 cell_6_3) true))
(assert
 (and (distinct cell_4_4 cell_4_5 cell_4_6 cell_5_4 cell_5_5 cell_5_6 cell_6_4 cell_6_5 cell_6_6) true))
(assert
 (and (distinct cell_4_7 cell_4_8 cell_4_9 cell_5_7 cell_5_8 cell_5_9 cell_6_7 cell_6_8 cell_6_9) true))
(assert
 (and (distinct cell_7_1 cell_7_2 cell_7_3 cell_8_1 cell_8_2 cell_8_3 cell_9_1 cell_9_2 cell_9_3) true))
(assert
 (and (distinct cell_7_4 cell_7_5 cell_7_6 cell_8_4 cell_8_5 cell_8_6 cell_9_4 cell_9_5 cell_9_6) true))
(assert
 (and (distinct cell_7_7 cell_7_8 cell_7_9 cell_8_7 cell_8_8 cell_8_9 cell_9_7 cell_9_8 cell_9_9) true))
(assert
 (let (($x1465 (and (distinct cell_5_9 cell_6_8 cell_7_7 cell_8_6) true)))
 (let (($x536 (and (distinct cell_2_9 cell_3_8 cell_4_7 cell_5_6 cell_6_5 cell_7_4 cell_8_3 cell_9_2) true)))
 (let (($x1485 (and (distinct cell_1_8 cell_2_7 cell_3_6 cell_4_5 cell_5_4 cell_6_3 cell_7_2 cell_8_1) true)))
 (let (($x2209 (and (distinct cell_1_5 cell_2_4 cell_3_3 cell_4_2) true)))
 (let (($x3257 (and (distinct cell_5_1 cell_6_2 cell_7_3 cell_8_4) true)))
 (let (($x1386 (and (distinct cell_2_1 cell_3_2 cell_4_3 cell_5_4 cell_6_5 cell_7_6 cell_8_7 cell_9_8) true)))
 (let (($x2562 (and (distinct cell_1_2 cell_2_3 cell_3_4 cell_4_5 cell_5_6 cell_6_7 cell_7_8 cell_8_9) true)))
 (let (($x537 (and (distinct cell_1_5 cell_2_6 cell_3_7 cell_4_8) true)))
 (and $x537 $x2562 $x1386 $x3257 $x2209 $x1485 $x536 $x1465))))))))))
(assert
 (= cell_5_5 2))
(check-sat)
